
Log started (V11.0.0) Fri May 16 19:12:05 2008

Tried aggregator 1 time.
Reduced MIP has 240 rows, 8001 columns, and 16040 nonzeros.
Presolve time =    0.06 sec.
Clique table members: 200.
MIP emphasis: balance optimality and feasibility.
MIP search method: dynamic search.
Parallel mode: none, using 1 thread.
Root relaxation solution time =    0.66 sec.

        Nodes                                         Cuts/
   Node  Left     Objective  IInf  Best Integer     Best Node    ItCnt     Gap

*     0+    0                        22121.0000      500.7002      573   97.74%
*     0+    0                          503.0000      500.7002      573    0.46%
      0     0      501.0000    56      503.0000      Fract: 6      586    0.40%
      0     0      501.0000    62      503.0000     Covers: 1      588    0.40%
      0     0      501.0000    62      503.0000     Covers: 1      589    0.40%
      0     2      501.0000    62      503.0000      501.0000      589    0.40%
    100    51      502.0000    57      503.0000      501.0000     9257    0.40%
    200    75    infeasible            503.0000      501.0000    42442    0.40%
    300   125      501.0000    48      503.0000      501.0000    45895    0.40%
    400   194      501.0000    62      503.0000      501.0000    50762    0.40%
*   478+  170                          502.0000      501.0000    55086    0.20%
    500   172      501.0000    66      502.0000      501.0000    56508    0.20%
    600   184      501.0000    59      502.0000      501.0000    65931    0.20%
    700   151      501.0000    57      502.0000      501.0000    81026    0.20%
    800   192    infeasible            502.0000      501.0000    95639    0.20%
    900   254      501.0000    67      502.0000      501.0000   116152    0.20%
   1000   328      501.0000    61      502.0000      501.0000   125508    0.20%
Elapsed time =  66.58 sec. (tree size =  1.78 MB, solutions = 3)
   1100   314    infeasible            502.0000      501.0000   231897    0.20%
   1200   214    infeasible            502.0000      501.0000   475518    0.20%
   1300   238    infeasible            502.0000      501.0000   554613    0.20%
   1400   294    infeasible            502.0000      501.0000   573678    0.20%
   1500   224    infeasible            502.0000      501.0000   802109    0.20%
   1600   124    infeasible            502.0000      501.0000  1082040    0.20%
   1700    24    infeasible            502.0000      501.0000  1335493    0.20%

Cover cuts applied:  104
Mixed integer rounding cuts applied:  1
Gomory fractional cuts applied:  13

Solution pool: 3 solutions saved.

MIP - Integer optimal solution:  Objective = 5.0200000000e+002
Solution time =  514.56 sec.  Iterations = 1385631  Nodes = 1725


Incumbent solution
Variable Name           Solution Value
Cmax                        502.000000
X_1_14                        1.000000
X_2_15                        1.000000
X_3_16                        1.000000
X_4_1                         1.000000
X_5_19                        1.000000
X_6_11                        1.000000
X_7_33                        1.000000
X_8_18                        1.000000
X_9_2                         1.000000
X_10_9                        1.000000
X_11_31                       1.000000
X_12_39                       1.000000
X_13_2                        1.000000
X_14_9                        1.000000
X_15_3                        1.000000
X_16_37                       1.000000
X_17_24                       1.000000
X_18_8                        1.000000
X_19_19                       1.000000
X_20_37                       1.000000
X_21_10                       1.000000
X_22_32                       1.000000
X_23_6                        1.000000
X_24_5                        1.000000
X_25_1                        1.000000
X_26_34                       1.000000
X_27_12                       1.000000
X_28_7                        1.000000
X_29_37                       1.000000
X_30_34                       1.000000
X_31_14                       1.000000
X_32_29                       1.000000
X_33_27                       1.000000
X_34_37                       1.000000
X_35_20                       1.000000
X_36_27                       1.000000
X_37_13                       1.000000
X_38_10                       1.000000
X_39_12                       1.000000
X_40_22                       1.000000
X_41_28                       1.000000
X_42_39                       1.000000
X_43_25                       1.000000
X_44_25                       1.000000
X_45_29                       1.000000
X_46_13                       1.000000
X_47_38                       1.000000
X_48_38                       1.000000
X_49_24                       1.000000
X_50_5                        1.000000
X_51_23                       1.000000
X_52_11                       1.000000
X_53_4                        1.000000
X_54_28                       1.000000
X_55_40                       1.000000
X_56_27                       1.000000
X_57_17                       1.000000
X_58_17                       1.000000
X_59_32                       1.000000
X_60_5                        1.000000
X_61_7                        1.000000
X_62_25                       1.000000
X_63_36                       1.000000
X_64_4                        1.000000
X_65_27                       1.000000
X_66_19                       1.000000
X_67_15                       1.000000
X_68_39                       1.000000
X_69_3                        1.000000
X_70_2                        1.000000
X_71_36                       1.000000
X_72_16                       1.000000
X_73_21                       1.000000
X_74_22                       1.000000
X_75_36                       1.000000
X_76_40                       1.000000
X_77_21                       1.000000
X_78_40                       1.000000
X_79_25                       1.000000
X_80_30                       1.000000
X_81_27                       1.000000
X_82_33                       1.000000
X_83_1                        1.000000
X_84_33                       1.000000
X_85_28                       1.000000
X_86_13                       1.000000
X_87_28                       1.000000
X_88_39                       1.000000
X_89_20                       1.000000
X_90_20                       1.000000
X_91_9                        1.000000
X_92_24                       1.000000
X_93_24                       1.000000
X_94_9                        1.000000
X_95_26                       1.000000
X_96_29                       1.000000
X_97_5                        1.000000
X_98_13                       1.000000
X_99_20                       1.000000
X_100_3                       1.000000
X_101_23                      1.000000
X_102_2                       1.000000
X_103_29                      1.000000
X_104_40                      1.000000
X_105_19                      1.000000
X_106_32                      1.000000
X_107_10                      1.000000
X_108_31                      1.000000
X_109_39                      1.000000
X_110_12                      1.000000
X_111_40                      1.000000
X_112_21                      1.000000
X_113_17                      1.000000
X_114_26                      1.000000
X_115_35                      1.000000
X_116_26                      1.000000
X_117_33                      1.000000
X_118_23                      1.000000
X_119_18                      1.000000
X_120_28                      1.000000
X_121_2                       1.000000
X_122_32                      1.000000
X_123_4                       1.000000
X_124_16                      1.000000
X_125_35                      1.000000
X_126_21                      1.000000
X_127_7                       1.000000
X_128_9                       1.000000
X_129_36                      1.000000
X_130_16                      1.000000
X_131_8                       1.000000
X_132_12                      1.000000
X_133_26                      1.000000
X_134_31                      1.000000
X_135_13                      1.000000
X_136_21                      1.000000
X_137_6                       1.000000
X_138_31                      1.000000
X_139_31                      1.000000
X_140_22                      1.000000
X_141_14                      1.000000
X_142_22                      1.000000
X_143_30                      1.000000
X_144_4                       1.000000
X_145_14                      1.000000
X_146_8                       1.000000
X_147_15                      1.000000
X_148_7                       1.000000
X_149_22                      1.000000
X_150_23                      1.000000
X_151_38                      1.000000
X_152_34                      1.000000
X_153_4                       1.000000
X_154_32                      1.000000
X_155_3                       1.000000
X_156_8                       1.000000
X_157_23                      1.000000
X_158_25                      1.000000
X_159_35                      1.000000
X_160_30                      1.000000
X_161_8                       1.000000
X_162_17                      1.000000
X_163_26                      1.000000
X_164_29                      1.000000
X_165_38                      1.000000
X_166_16                      1.000000
X_167_12                      1.000000
X_168_30                      1.000000
X_169_14                      1.000000
X_170_38                      1.000000
X_171_34                      1.000000
X_172_3                       1.000000
X_173_35                      1.000000
X_174_37                      1.000000
X_175_18                      1.000000
X_176_6                       1.000000
X_177_7                       1.000000
X_178_6                       1.000000
X_179_18                      1.000000
X_180_1                       1.000000
X_181_35                      1.000000
X_182_6                       1.000000
X_183_33                      1.000000
X_184_30                      1.000000
X_185_11                      1.000000
X_186_24                      1.000000
X_187_18                      1.000000
X_188_10                      1.000000
X_189_20                      1.000000
X_190_36                      1.000000
X_191_15                      1.000000
X_192_11                      1.000000
X_193_10                      1.000000
X_194_19                      1.000000
X_195_1                       1.000000
X_196_17                      1.000000
X_197_11                      1.000000
X_198_5                       1.000000
X_199_34                      1.000000
X_200_15                      1.000000
All other variables in the range 1-8001 are 0.
